23 23
19
3 3   6 20
3 4   20 19
3 5   20 3 
3 6   3 17
3 7   3 0 
3 8   17 15
3 9   0 14
3 10  3 7 
3 11  20 8 
3 12  17 3 
3 14  0 0 
3 20  6 0 
4 3   9 10
4 4   9 19
4 6   9 13
4 10  9 0 
4 11  13 0 
4 12  13 11
6 3   17 0 
